data;


param d:= 100;
param r:=5;
param p:=0.740000;
param M:=1000;
param U:=
         1         1        1.002151e+00
         2         1       -6.195639e-02
         3         1       -2.266252e-01
         4         1       -2.406584e-01
         5         1        1.102268e+00
         6         1       -9.909273e-01
         7         1       -2.067309e+00
         8         1       -2.933980e-01
         9         1       -3.236132e-01
        10         1        5.937307e-01
        11         1        5.708663e-01
        12         1        1.311427e+00
        13         1        5.088057e-01
        14         1       -7.693028e-01
        15         1       -5.618040e-01
        16         1       -1.298538e+00
        17         1        1.326477e+00
        18         1       -6.336649e-01
        19         1       -1.657008e+00
        20         1       -2.304590e+00
        21         1       -6.362814e-01
        22         1        1.891967e+00
        23         1        7.038101e-01
        24         1       -2.654403e-01
        25         1       -7.753033e-01
        26         1       -9.124433e-01
        27         1       -8.823836e-02
        28         1        6.992991e-01
        29         1        5.715481e-01
        30         1       -4.497400e-01
        31         1       -8.824188e-01
        32         1        1.508411e-01
        33         1       -1.363569e-01
        34         1       -4.713123e-01
        35         1        7.455955e-01
        36         1       -8.110513e-01
        37         1       -4.948519e-01
        38         1        7.088613e-01
        39         1        1.167154e+00
        40         1       -2.407800e+00
        41         1        6.067346e-01
        42         1       -6.123586e-01
        43         1        2.094181e+00
        44         1       -1.410946e+00
        45         1        1.182961e+00
        46         1       -1.233874e+00
        47         1        4.598481e-03
        48         1        2.596098e-01
        49         1        6.491130e-01
        50         1        3.171635e-01
        51         1        8.798501e-01
        52         1        2.616462e-01
        53         1       -1.279093e+00
        54         1       -6.141116e-01
        55         1       -1.707622e+00
        56         1        1.105160e+00
        57         1        1.469282e+00
        58         1       -3.787229e-01
        59         1       -1.032872e+00
        60         1        9.502101e-01
        61         1       -3.062087e-01
        62         1       -4.909126e-02
        63         1       -2.695907e-01
        64         1       -1.081991e+00
        65         1        1.555071e+00
        66         1        9.462825e-01
        67         1        9.523490e-01
        68         1       -9.524054e-01
        69         1       -2.021892e+00
        70         1       -4.415716e-02
        71         1        3.249763e-01
        72         1        7.154402e-01
        73         1       -8.440402e-01
        74         1       -8.030555e-01
        75         1        4.401324e-02
        76         1       -4.365980e-01
        77         1       -5.864691e-01
        78         1       -8.542070e-01
        79         1        6.526167e-01
        80         1        1.074843e+00
        81         1       -3.551279e-01
        82         1        1.411131e+00
        83         1       -3.396317e-01
        84         1       -6.603891e-01
        85         1        1.852543e+00
        86         1        1.121208e+00
        87         1       -1.581913e+00
        88         1       -3.928893e-01
        89         1       -1.177685e+00
        90         1        1.148913e+00
        91         1       -1.072093e+00
        92         1       -5.582151e-01
        93         1       -1.866739e-02
        94         1       -2.330470e+00
        95         1        1.740060e-01
        96         1       -8.716641e-01
        97         1       -3.055133e-01
        98         1       -6.470855e-01
        99         1        1.281983e+00
       100         1        5.110173e-01
         1         2       -1.303779e+00
         2         2        3.194403e-01
         3         2       -9.858137e-02
         4         2        1.795769e+00
         5         2       -1.836791e-02
         6         2       -3.670893e-01
         7         2        1.440995e+00
         8         2        1.572870e-01
         9         2       -2.073093e+00
        10         2        9.110057e-01
        11         2        5.451657e-01
        12         2       -3.508261e-02
        13         2        2.175055e+00
        14         2       -3.511809e-01
        15         2       -8.801842e-01
        16         2        1.628158e+00
        17         2        6.098939e-01
        18         2       -1.043953e+00
        19         2       -5.639950e-01
        20         2        4.893181e-01
        21         2        1.495217e+00
        22         2        6.025066e-01
        23         2       -6.378776e-01
        24         2       -1.402667e+00
        25         2       -8.473207e-01
        26         2       -2.689563e+00
        27         2       -1.595541e+00
        28         2       -6.239333e-01
        29         2        1.848408e+00
        30         2       -8.685156e-02
        31         2       -1.797091e+00
        32         2       -7.952084e-01
        33         2       -8.537968e-01
        34         2       -4.268749e-01
        35         2       -2.019612e+00
        36         2       -8.504876e-01
        37         2       -3.101334e-01
        38         2       -1.319888e+00
        39         2       -7.580135e-01
        40         2       -1.288405e+00
        41         2       -4.034818e-01
        42         2       -9.263956e-02
        43         2       -6.801805e-01
        44         2        3.147637e-01
        45         2       -7.814799e-02
        46         2        1.515989e+00
        47         2        5.026442e-01
        48         2       -9.806654e-01
        49         2       -6.849558e-02
        50         2       -5.182816e-01
        51         2       -1.899017e+00
        52         2        2.625715e-01
        53         2        6.689067e-01
        54         2       -8.036401e-01
        55         2        1.126108e+00
        56         2       -6.584945e-01
        57         2       -1.642248e+00
        58         2       -1.028671e+00
        59         2       -6.868392e-01
        60         2        1.562808e+00
        61         2       -9.292819e-01
        62         2        2.067811e-01
        63         2       -4.068924e-01
        64         2        8.673712e-01
        65         2        1.445335e+00
        66         2        2.466907e-02
        67         2        7.614088e-01
        68         2        4.130140e-01
        69         2        4.723536e-02
        70         2        1.689136e-02
        71         2        2.715571e+00
        72         2       -9.307226e-01
        73         2        1.145221e+00
        74         2        6.697746e-01
        75         2        1.132849e-01
        76         2        8.609191e-01
        77         2       -9.123929e-01
        78         2       -2.104638e-01
        79         2        1.687432e-02
        80         2       -9.656444e-02
        81         2        6.195724e-01
        82         2        1.827660e-02
        83         2        7.600567e-03
        84         2       -3.457639e-02
        85         2       -1.356822e+00
        86         2       -4.576337e-01
        87         2       -2.740121e-01
        88         2       -9.197264e-01
        89         2       -4.808690e-02
        90         2       -1.108049e+00
        91         2        4.412622e-01
        92         2        2.542405e+00
        93         2       -1.070662e-01
        94         2        1.440668e-02
        95         2        6.454204e-01
        96         2       -1.910464e-01
        97         2       -2.106439e-01
        98         2       -1.532555e+00
        99         2        1.444919e-01
       100         2        7.854353e-01
         1         3       -6.417436e-01
         2         3       -4.929668e-01
         3         3       -7.757942e-01
         4         3        5.280977e-02
         5         3       -5.209160e-01
         6         3       -7.885879e-01
         7         3        3.383104e-01
         8         3        1.556861e+00
         9         3       -1.619333e+00
        10         3        6.189588e-01
        11         3        1.187982e+00
        12         3        4.458779e-01
        13         3       -1.042373e+00
        14         3       -1.553729e+00
        15         3        1.748544e+00
        16         3       -7.117494e-01
        17         3       -4.379349e-01
        18         3       -2.102679e+00
        19         3       -5.979324e-01
        20         3        7.437330e-01
        21         3        1.260188e+00
        22         3       -1.502629e-02
        23         3        1.035689e+00
        24         3        1.675345e+00
        25         3       -1.589887e-01
        26         3       -2.475681e-01
        27         3        1.112214e+00
        28         3        2.928520e-01
        29         3       -7.079779e-02
        30         3       -1.269974e+00
        31         3       -2.860378e-01
        32         3        1.609395e+00
        33         3       -4.451603e-01
        34         3       -1.028516e+00
        35         3        1.480749e-01
        36         3        1.337364e+00
        37         3       -3.523620e-03
        38         3        9.085481e-01
        39         3        9.990817e-01
        40         3       -5.651640e-01
        41         3        1.653423e+00
        42         3        1.720465e+00
        43         3       -4.000995e-02
        44         3       -7.048461e-01
        45         3        2.782896e-02
        46         3       -2.559889e-02
        47         3       -1.224090e+00
        48         3        2.719750e-01
        49         3       -3.507536e-01
        50         3       -1.503679e+00
        51         3        9.370084e-01
        52         3       -1.373572e+00
        53         3        5.647586e-01
        54         3       -7.432447e-01
        55         3       -2.026280e+00
        56         3        9.182299e-01
        57         3       -6.131855e-01
        58         3       -3.342569e-01
        59         3       -9.352637e-02
        60         3        2.964422e-01
        61         3        9.301522e-01
        62         3        8.477980e-01
        63         3        1.417727e+00
        64         3        4.008223e-01
        65         3        6.029620e-01
        66         3        9.435613e-01
        67         3        1.277732e+00
        68         3       -3.360514e-01
        69         3        1.325841e+00
        70         3       -1.151583e+00
        71         3        5.475073e-01
        72         3       -2.909631e-01
        73         3        1.287641e+00
        74         3       -2.012404e-01
        75         3        1.015037e+00
        76         3        5.513981e-01
        77         3        1.004318e+00
        78         3        1.213827e+00
        79         3       -7.788385e-03
        80         3       -1.594859e+00
        81         3        1.583926e+00
        82         3       -6.507536e-02
        83         3       -7.333073e-01
        84         3        8.366338e-02
        85         3       -9.283576e-02
        86         3       -6.296737e-01
        87         3       -3.025838e-01
        88         3       -1.731254e+00
        89         3       -3.980491e-01
        90         3       -6.099050e-01
        91         3       -9.611392e-01
        92         3        8.685338e-02
        93         3        6.989514e-01
        94         3       -5.003323e-01
        95         3       -1.598519e-01
        96         3        3.356596e-02
        97         3        9.750323e-01
        98         3        9.468777e-01
        99         3        9.067866e-01
       100         3        3.974188e-01
         1         4        1.773410e+00
         2         4       -5.549082e-01
         3         4        2.274419e-01
         4         4        5.169134e-01
         5         4       -6.985217e-01
         6         4       -4.030156e-01
         7         4       -9.829155e-01
         8         4        4.543869e-01
         9         4        1.931652e+00
        10         4       -7.113071e-01
        11         4        8.987942e-01
        12         4       -7.421314e-01
        13         4        3.045688e-01
        14         4       -6.314641e-01
        15         4        2.722792e+00
        16         4        7.722962e-01
        17         4        7.174412e-01
        18         4        1.862571e-01
        19         4       -1.894484e-01
        20         4       -1.306410e+00
        21         4       -1.862005e+00
        22         4        2.427658e-01
        23         4       -1.535169e+00
        24         4       -1.215611e+00
        25         4       -2.014279e-01
        26         4        1.835851e+00
        27         4       -1.578204e+00
        28         4        8.808542e-01
        29         4        2.139960e+00
        30         4        1.065487e+00
        31         4        4.769045e-01
        32         4        2.176912e+00
        33         4        7.807744e-02
        34         4       -1.900230e-02
        35         4        8.730132e-01
        36         4        1.027070e+00
        37         4        1.196198e+00
        38         4        1.793274e+00
        39         4        1.326024e+00
        40         4        8.446853e-01
        41         4        9.274256e-01
        42         4        3.794877e-01
        43         4        7.709994e-01
        44         4       -9.303894e-01
        45         4       -3.391479e-01
        46         4       -7.410451e-01
        47         4        1.843820e-01
        48         4       -4.097925e-01
        49         4       -1.115994e+00
        50         4        6.103133e-01
        51         4        1.167842e+00
        52         4        2.274958e-01
        53         4       -1.194827e+00
        54         4        1.458580e+00
        55         4        5.668445e-01
        56         4        1.452243e+00
        57         4       -1.452340e+00
        58         4       -1.614495e+00
        59         4       -1.023061e+00
        60         4        3.119985e-01
        61         4        4.425635e-01
        62         4       -5.078060e-01
        63         4        1.029191e-01
        64         4       -9.799533e-01
        65         4        1.529235e+00
        66         4       -1.913019e-01
        67         4        1.036940e+00
        68         4        8.060634e-01
        69         4        7.238810e-02
        70         4       -8.867519e-01
        71         4        9.512967e-01
        72         4       -1.129697e+00
        73         4        7.058948e-01
        74         4       -3.620414e-01
        75         4        1.080430e-01
        76         4       -1.810635e-01
        77         4       -7.686581e-01
        78         4       -1.542993e+00
        79         4        1.415055e-01
        80         4       -1.181528e+00
        81         4        5.231514e-01
        82         4        1.092561e+00
        83         4       -7.864688e-01
        84         4        1.028856e+00
        85         4        1.332255e-01
        86         4       -1.863687e+00
        87         4        3.071249e-01
        88         4        1.413906e-01
        89         4        4.564521e-01
        90         4        2.004008e-01
        91         4        7.192379e-01
        92         4        2.081725e-01
        93         4       -1.049334e+00
        94         4       -1.912492e-01
        95         4       -1.085023e+00
        96         4        3.705110e-03
        97         4       -1.140072e+00
        98         4       -5.572226e-01
        99         4        3.112912e-01
       100         4       -7.525723e-01
         1         5       -7.805787e-01
         2         5        6.547093e-01
         3         5       -7.472063e-01
         4         5        1.419885e+00
         5         5       -4.597449e-01
         6         5       -1.601937e+00
         7         5       -5.437160e-02
         8         5        7.450171e-01
         9         5       -2.609999e+00
        10         5        5.701024e-01
        11         5       -1.926361e+00
        12         5       -1.546848e+00
        13         5       -1.258014e+00
        14         5       -1.204624e+00
        15         5        5.313536e-01
        16         5        5.391866e-01
        17         5       -2.175799e-01
        18         5        1.678205e+00
        19         5        8.567244e-01
        20         5       -1.717866e+00
        21         5       -2.817014e+00
        22         5       -1.335373e-01
        23         5       -5.684728e-01
        24         5        9.113613e-01
        25         5        8.591942e-02
        26         5       -8.339066e-02
        27         5       -1.924889e-01
        28         5       -8.616038e-01
        29         5       -1.550711e-01
        30         5        1.537318e-01
        31         5       -1.096721e-01
        32         5       -9.528444e-01
        33         5       -2.632034e-01
        34         5       -1.572913e+00
        35         5       -3.685837e-01
        36         5        9.098038e-02
        37         5       -1.262050e-01
        38         5        8.753967e-01
        39         5       -9.786589e-01
        40         5       -3.209756e-01
        41         5        6.291631e-01
        42         5        1.753843e+00
        43         5        3.568349e-01
        44         5       -1.257147e+00
        45         5       -2.088904e-01
        46         5       -6.776993e-03
        47         5       -6.141402e-01
        48         5        1.528796e-01
        49         5        4.306028e-01
        50         5       -1.509431e+00
        51         5        8.109020e-02
        52         5       -8.237768e-01
        53         5        2.251787e+00
        54         5        1.082635e+00
        55         5       -1.033147e+00
        56         5        3.848965e-02
        57         5       -6.758775e-02
        58         5       -2.820215e-01
        59         5       -2.787495e-01
        60         5       -3.069701e-01
        61         5       -5.799306e-01
        62         5        2.454095e+00
        63         5        2.019288e+00
        64         5        8.910881e-01
        65         5        2.653828e-01
        66         5       -2.406728e+00
        67         5       -6.459673e-01
        68         5        7.716362e-01
        69         5       -1.005161e-01
        70         5        3.506505e-01
        71         5       -9.353197e-01
        72         5       -1.529748e+00
        73         5       -1.586496e+00
        74         5       -6.459561e-02
        75         5       -1.760837e+00
        76         5        3.718775e-01
        77         5       -7.654485e-01
        78         5       -5.541039e-01
        79         5       -1.520614e+00
        80         5       -1.101746e+00
        81         5        7.167714e-01
        82         5       -6.507240e-01
        83         5       -2.073768e-01
        84         5       -4.440784e-01
        85         5        2.488916e-01
        86         5        1.922449e-01
        87         5       -5.366375e-01
        88         5        7.710862e-01
        89         5        5.127765e-02
        90         5       -1.390937e+00
        91         5       -4.525152e-01
        92         5       -2.837029e-01
        93         5       -5.067547e-01
        94         5       -2.516847e+00
        95         5       -1.434625e+00
        96         5       -2.460922e+00
        97         5       -9.837823e-01
        98         5        8.864442e-01
        99         5        1.485616e-01
       100         5        9.969326e-01
;

param theta:=
    1       -9.246003e-01
    2        1.627451e+00
    3       -1.583263e+00
    4        1.040763e+00
    5       -1.732902e+00
;
param X_true:=
    1        1.165988e+00
    2       -3.544199e-01
    3        2.808936e+00
    4        1.138892e+00
    5       -1.546060e-01
    6        3.923890e+00
    7        2.792189e+00
    8       -2.755800e+00
    9        6.022449e+00
   10       -1.774554e+00
   11        2.752144e+00
   12       -6.743038e-02
   13        7.216703e+00
   14        4.030021e+00
   15       -1.768421e+00
   16        4.846682e+00
   17        1.583208e+00
   18       -4.983149e-01
   19       -1.209097e-01
   20        3.366871e+00
   21        3.970193e+00
   22       -2.609042e-01
   23       -3.941265e+00
   24       -7.534320e+00
   25       -7.689350e-01
   26       -1.086329e+00
   27       -5.584977e+00
   28        2.841796e-01
   29        5.087744e+00
   30        3.127703e+00
   31       -9.695251e-01
   32       -6.489204e-02
   33       -2.126550e-02
   34        4.075395e+00
   35       -2.663320e+00
   36       -1.840351e+00
   37        1.422051e+00
   38       -3.892540e+00
   39       -8.185941e-01
   40        2.459576e+00
   41       -3.960485e+00
   42       -4.952808e+00
   43       -2.795827e+00
   44        4.142978e+00
   45       -1.255995e+00
   46        2.889060e+00
   47        4.007976e+00
   48       -2.958050e+00
   49       -2.063985e+00
   50        4.494879e+00
   51       -4.312673e+00
   52        4.024423e+00
   53       -3.768555e+00
   54        7.860964e-02
   55        8.999981e+00
   56       -2.102558e+00
   57       -4.454763e+00
   58       -1.986318e+00
   59       -5.964443e-01
   60        2.052148e+00
   61       -1.236350e+00
   62       -5.741583e+00
   63       -6.049682e+00
   64       -7.866604e-01
   65        1.091434e+00
   66        1.642832e+00
   67        5.342335e-01
   68        1.586564e+00
   69        9.668390e-02
   70        3.610358e-01
   71        5.863029e+00
   72       -2.403738e-01
   73        4.089427e+00
   74        1.886286e+00
   75        1.700405e+00
   76        9.890308e-02
   77       -2.006269e+00
   78       -2.120209e+00
   79        2.218731e+00
   80        2.053654e+00
   81       -1.868715e+00
   82        1.092781e+00
   83        1.028248e+00
   84        2.262202e+00
   85       -4.066689e+00
   86       -3.057304e+00
   87        2.745350e+00
   88        4.184233e-01
   89        2.027045e+00
   90        7.189851e-01
   91        4.763847e+00
   92        5.224542e+00
   93       -1.477561e+00
   94        7.132760e+00
   95        2.499405e+00
   96        4.710270e+00
   97       -1.085814e+00
   98       -5.511076e+00
   99       -2.319312e+00
  100       -2.334283e+00
;
param X:=
    1        2.207194e+00
    2       -3.544199e-01
    3        1.050450e+00
    4        2.586400e-01
    5       -1.546060e-01
    6       -6.846066e-01
    7       -3.648384e-01
    8       -2.755800e+00
    9        4.400548e-01
   10        1.164837e+00
   11        2.130635e+00
   12       -6.449903e-01
   13        3.767001e-01
   14       -7.828889e-01
   15        4.904352e-01
   16        1.234403e+00
   17       -4.656602e-01
   18        5.264356e-01
   19       -1.209097e-01
   20       -3.667421e-01
   21        3.970193e+00
   22        1.878989e+00
   23        2.846735e-01
   24       -7.534320e+00
   25       -7.689350e-01
   26        3.221020e-01
   27        1.510532e+00
   28       -2.444194e+00
   29        1.305417e+00
   30        3.127703e+00
   31        2.201633e-01
   32       -2.135742e+00
   33        2.389773e+00
   34       -7.664433e-01
   35       -2.536082e-01
   36        1.251967e+00
   37        4.383806e-01
   38       -6.908372e-01
   39       -8.185941e-01
   40        9.487038e-01
   41       -4.994126e-01
   42        8.369955e-01
   43       -2.795827e+00
   44        8.602976e-01
   45       -1.653821e+00
   46       -1.050848e+00
   47        4.528149e-02
   48       -2.958050e+00
   49       -8.451127e-01
   50        4.494879e+00
   51       -3.486288e-01
   52        5.741569e-01
   53        5.450015e-01
   54        6.797406e-01
   55        4.182141e-01
   56       -1.762536e+00
   57       -4.454763e+00
   58       -4.506341e-01
   59       -1.548974e-01
   60        4.212745e-01
   61       -5.040105e-01
   62       -5.741583e+00
   63       -6.049682e+00
   64        3.614172e-01
   65        2.946130e-01
   66        1.642832e+00
   67       -5.972677e-01
   68        1.586564e+00
   69       -1.526399e-02
   70       -1.444470e+00
   71        2.017163e+00
   72       -9.763302e-01
   73        4.089427e+00
   74       -2.387851e+00
   75        1.509242e+00
   76        9.890308e-02
   77       -2.006269e+00
   78        1.784178e-01
   79        2.218731e+00
   80        3.686852e-01
   81       -1.573570e+00
   82       -1.052559e+00
   83        5.747675e-01
   84       -4.782275e-01
   85       -1.025517e+00
   86        3.604980e-01
   87        4.631735e-01
   88       -1.579158e+00
   89        2.027045e+00
   90        7.189851e-01
   91       -1.617021e-01
   92        5.224542e+00
   93        4.451970e-01
   94        7.132760e+00
   95        8.514725e-01
   96        1.323412e+00
   97        1.866737e+00
   98        9.461124e-01
   99        1.267398e-01
  100       -2.334283e+00
;
param outliervec:=
    1    1
    2    0
    3    1
    4    1
    5    0
    6    1
    7    1
    8    0
    9    1
   10    1
   11    1
   12    1
   13    1
   14    1
   15    1
   16    1
   17    1
   18    1
   19    0
   20    1
   21    0
   22    1
   23    1
   24    0
   25    0
   26    1
   27    1
   28    1
   29    1
   30    0
   31    1
   32    1
   33    1
   34    1
   35    1
   36    1
   37    1
   38    1
   39    0
   40    1
   41    1
   42    1
   43    0
   44    1
   45    1
   46    1
   47    1
   48    0
   49    1
   50    0
   51    1
   52    1
   53    1
   54    1
   55    1
   56    1
   57    0
   58    1
   59    1
   60    1
   61    1
   62    0
   63    0
   64    1
   65    1
   66    0
   67    1
   68    0
   69    1
   70    1
   71    1
   72    1
   73    0
   74    1
   75    1
   76    0
   77    0
   78    1
   79    0
   80    1
   81    1
   82    1
   83    1
   84    1
   85    1
   86    1
   87    1
   88    1
   89    0
   90    0
   91    1
   92    0
   93    1
   94    0
   95    1
   96    1
   97    1
   98    1
   99    1
  100    0
;